
  22   10
  10   10   10   10   10   10   10   10   10   10

   0   0   0   0   0   0   0   0   0   0   0   2 2 4 
   1   0   0   0  10   0   0   0   0   0   0   2 8 3 
   3   0   0   0   0   0  10   0   0   0   0   3 16 12 5 
   8   0   0  10   0   0   0   0   0   0   0   3 16 12 5 
   2   0   0   0   0  10   0   0   0   0   0   4 21 20 15 6 
  10   0   0   0  10   0   0   0   0   0   0   2 11 7 
   4   0   0   0   0   0  10   0   0   0   0   3 19 18 9 
  10   0  10   0   0   0   0   0   0   0   0   2 18 10 
   9   0   0   0   0   0   0   0   0  10   0   1 10 
  10  10   0   0   0   0   0   0   0   0   0   1 13 
   3  10   0   0   0   0   0   0   0   0   0   2 18 17 
   1   0   0  10   0   0   0   0   0   0   0   2 20 18 
  10  10   0   0   0   0   0   0   0   0   0   1 14 
   5  10   0   0   0   0   0   0   0   0   0   1 17 
   2   0   0   0   0   0   0  10   0   0   0   1 19 
   2   0   0   0   0   0   0   0   0   0  10   1 20 
   5  10   0   0   0   0   0   0   0   0   0   1 22
   9   0   0   0   0   0   0   0  10   0   0   1 22
   4   0   0   0   0   0   0   0   0  10   0   1 22
   1   0   0   0   0   0   0   0   0  10   0   1 22
   1   0   0  10   0   0   0   0   0   0   0   1 22
   0   0   0   0   0   0   0   0   0   0   0   0 
